p wcnf 106 212 213 
1 -12 -100 0 
1 -50 54 0 
1 80 -52 0 
1 -8 67 0 
1 -64 -51 0 
1 -46 -84 0 
1 -48 -96 0 
1 58 76 0 
1 65 -80 0 
1 76 -37 0 
1 -32 -49 0 
1 54 99 0 
1 -87 104 0 
1 -105 65 0 
1 30 -27 0 
1 -31 53 0 
1 59 106 0 
1 -22 56 0 
1 41 65 0 
1 103 28 0 
1 36 -8 0 
1 1 -99 0 
1 11 73 0 
1 -104 -98 0 
1 56 97 0 
1 -60 -83 0 
1 2 20 0 
1 -83 11 0 
1 -52 -53 0 
1 27 57 0 
1 94 -67 0 
1 59 -57 0 
1 72 5 0 
1 39 -91 0 
1 88 3 0 
1 -29 -91 0 
1 -77 -103 0 
1 -64 -61 0 
1 -70 17 0 
1 -49 -56 0 
1 -95 -100 0 
1 103 -71 0 
1 15 61 0 
1 -79 101 0 
1 53 -50 0 
1 -96 -100 0 
1 -105 10 0 
1 64 9 0 
1 20 -62 0 
1 -84 53 0 
1 -18 86 0 
1 -29 -85 0 
1 51 98 0 
1 66 -48 0 
1 92 -102 0 
1 48 -27 0 
1 -34 -11 0 
1 13 -64 0 
1 56 13 0 
1 36 11 0 
1 55 -17 0 
1 24 72 0 
1 64 74 0 
1 50 -105 0 
1 -49 -33 0 
1 -77 29 0 
1 -14 60 0 
1 94 11 0 
1 39 52 0 
1 85 -61 0 
1 87 -48 0 
1 60 95 0 
1 75 57 0 
1 -73 -35 0 
1 52 -18 0 
1 -105 59 0 
1 -54 -23 0 
1 68 7 0 
1 -65 -13 0 
1 103 -15 0 
1 98 -95 0 
1 32 -4 0 
1 -37 28 0 
1 36 -50 0 
1 46 50 0 
1 27 -103 0 
1 36 -84 0 
1 -15 -37 0 
1 25 44 0 
1 55 72 0 
1 -2 -94 0 
1 -64 -14 0 
1 12 59 0 
1 -65 -97 0 
1 -59 24 0 
1 17 -82 0 
1 79 -105 0 
1 -10 98 0 
1 -9 -21 0 
1 43 -80 0 
1 51 22 0 
1 -57 53 0 
1 -37 42 0 
1 53 9 0 
1 -103 -87 0 
1 21 65 0 
1 83 -55 0 
1 -84 -31 0 
1 77 96 0 
1 35 57 0 
1 -50 -44 0 
1 50 -70 0 
1 55 -82 0 
1 12 -46 0 
1 -49 47 0 
1 -38 79 0 
1 46 6 0 
1 -53 103 0 
1 -84 63 0 
1 -45 94 0 
1 10 -32 0 
1 98 -71 0 
1 5 76 0 
1 -86 20 0 
1 -32 -21 0 
1 82 -29 0 
1 -88 32 0 
1 9 -98 0 
1 -26 -3 0 
1 3 66 0 
1 -22 -20 0 
1 33 -70 0 
1 105 95 0 
1 -103 -50 0 
1 54 56 0 
1 19 -59 0 
1 16 -80 0 
1 28 -93 0 
1 7 33 0 
1 -92 -48 0 
1 -26 99 0 
1 -68 -32 0 
1 -98 -15 0 
1 103 -71 0 
1 -6 19 0 
1 65 2 0 
1 -43 -49 0 
1 83 -1 0 
1 24 104 0 
1 -10 -101 0 
1 23 -63 0 
1 -54 -30 0 
1 86 -40 0 
1 26 -31 0 
1 104 51 0 
1 -70 47 0 
1 -8 28 0 
1 13 10 0 
1 -89 -104 0 
1 -70 23 0 
1 2 56 0 
1 69 -70 0 
1 -88 -46 0 
1 -28 30 0 
1 -99 13 0 
1 -73 -46 0 
1 -75 -51 0 
1 95 -23 0 
1 36 -26 0 
1 21 -73 0 
1 -75 34 0 
1 -99 -80 0 
1 -78 20 0 
1 54 63 0 
1 -52 -19 0 
1 23 43 0 
1 -87 99 0 
1 -78 -69 0 
1 37 -34 0 
1 56 37 0 
1 6 11 0 
1 78 19 0 
1 59 17 0 
1 9 -79 0 
1 -12 86 0 
1 87 37 0 
1 60 96 0 
1 62 23 0 
1 -74 1 0 
1 -72 -16 0 
1 -73 78 0 
1 72 19 0 
1 43 82 0 
1 68 60 0 
1 -37 70 0 
1 -39 -60 0 
1 -63 18 0 
1 -105 53 0 
1 -50 -79 0 
1 29 90 0 
1 -38 -96 0 
1 37 -90 0 
1 89 38 0 
1 -69 103 0 
1 -29 -53 0 
1 18 73 0 
1 -33 -36 0 
1 59 -102 0 
1 84 92 0 
1 -33 -50 0 
1 91 61 0 
1 75 4 0 
